% Instancia problemática tipo: TOPOLOGIA_IMPOSIBLE
% Razón: Nodos críticos aislados sin conectividad
% Demanda total: 4920.89
% Suministro total: 5905.08
% Factor holgura: 1.2

nP = 3;
nT = 5;
nC1 = 6;
nC2 = 8;
nA = 50;
nD = 3;

arc_from = [2, 2, 2, 3, 3, 6, 7, 6, 4, 6, 7, 5, 5, 4, 8, 4, 8, 6, 7, 5, 9, 9, 9, 9, 9, 10, 10, 10, 10, 10, 11, 11, 11, 11, 11, 12, 12, 12, 12, 12, 13, 13, 13, 13, 13, 14, 14, 14, 14, 14];
arc_to = [8, 5, 4, 5, 6, 10, 10, 13, 12, 9, 9, 9, 11, 10, 14, 9, 12, 14, 14, 14, 16, 17, 18, 19, 22, 16, 17, 18, 19, 22, 16, 17, 18, 19, 22, 16, 17, 18, 19, 22, 16, 17, 18, 19, 22, 16, 17, 18, 19, 22];

supply = [1968.36, 1968.36, 1968.36, 0, 0, 0, 0, 0, 0, 0, 0, 0, 0, 0, 0, 0, 0, 0, 0, 0, 0, 0];
demand = [0, 0, 0, 0, 0, 0, 0, 0, 255.72, 213.88, 354.67, 270.23, 301.88, 335.90, 468.73, 366.23, 305.52, 475.41, 352.24, 416.12, 496.71, 307.65];

max_capacity = [795, 1414, 3181];

install_cost = array2d(1..nA, 1..nD, [
  20, 24, 32,
  50, 62, 78,
  20, 24, 32,
  50, 62, 78,
  20, 24, 32,
  50, 62, 78,
  20, 24, 32,
  50, 62, 78,
  20, 24, 32,
  50, 62, 78,
  20, 24, 32,
  50, 62, 78,
  20, 24, 32,
  50, 62, 78,
  20, 24, 32,
  50, 62, 78,
  20, 24, 32,
  50, 62, 78,
  20, 24, 32,
  50, 62, 78,
  20, 24, 32,
  50, 62, 78,
  20, 24, 32,
  50, 62, 78,
  20, 24, 32,
  50, 62, 78,
  20, 24, 32,
  50, 62, 78,
  20, 24, 32,
  50, 62, 78,
  20, 24, 32,
  50, 62, 78,
  20, 24, 32,
  50, 62, 78,
  20, 24, 32,
  50, 62, 78,
  20, 24, 32,
  50, 62, 78,
  20, 24, 32,
  50, 62, 78,
  20, 24, 32,
  50, 62, 78,
  20, 24, 32,
  50, 62, 78,
  20, 24, 32,
  50, 62, 78,
  20, 24, 32,
  50, 62, 78,
  20, 24, 32,
  50, 62, 78
]);

trans_cost = [12.89, 3.86, 2.89, 7.83, 9.15, 7.90, 1.80, 7.73, 4.09, 10.01, 9.10, 5.18, 6.46, 4.82, 7.81, 10.87, 5.04, 9.51, 6.41, 5.62, 7.68, 4.89, 6.34, 4.41, 13.89, 8.11, 5.90, 8.64, 7.66, 7.34, 9.84, 10.27, 6.41, 6.27, 7.17, 1.09, 3.45, 12.10, 12.93, 7.25, 9.73, 8.93, 17.24, 11.36, 7.62, 5.13, 3.18, 8.61, 5.73, 3.73];
